db/data/1651762397893284811898331483410925811.z3.out
-------------------
2500.063509791
